; SPDX-License-Identifier: MPL-2.0
; Copyright (c) 2026 The RIINA Authors.
; Auto-generated from 02_FORMAL/coq/domains/BufferOverflowPrevention.v (22 validations)
; Generated by scripts/generate-full-stack.py
;
; Translation Validation for BufferOverflowPrevention
; Layer 9: Verifies compiler backend preserves formal semantics.
; Each assertion checks source IR ≡ target code for a proven property.

(set-logic QF_LIA)
(set-option :produce-models true)

; IR node representation
(declare-sort IRNode 0)
(declare-sort TargetNode 0)

; buffer_valid: source semantics (matches Coq)
(declare-fun source_buffer_valid () Bool)
(declare-fun target_buffer_valid () Bool)
(assert (= source_buffer_valid target_buffer_valid))

; buffer_can_write: source semantics (matches Coq)
(declare-fun source_buffer_can_write () Bool)
(declare-fun target_buffer_can_write () Bool)
(assert (= source_buffer_can_write target_buffer_can_write))

; buffer_can_read: source semantics (matches Coq)
(declare-fun source_buffer_can_read () Bool)
(declare-fun target_buffer_can_read () Bool)
(assert (= source_buffer_can_read target_buffer_can_read))

; overflow_protected: source semantics (matches Coq)
(declare-fun source_overflow_protected () Bool)
(declare-fun target_overflow_protected () Bool)
(assert (= source_overflow_protected target_overflow_protected))

; riina_overflow_config: source semantics (matches Coq)
(declare-fun source_riina_overflow_config () Bool)
(declare-fun target_riina_overflow_config () Bool)
(assert (= source_riina_overflow_config target_riina_overflow_config))

; test_buffer: source semantics (matches Coq)
(declare-fun source_test_buffer () Bool)
(declare-fun target_test_buffer () Bool)
(assert (= source_test_buffer target_test_buffer))

; andb_true_iff: translation preserves property (matches Coq: Lemma)
(declare-fun source_andb_true_iff () Bool)
(declare-fun target_andb_true_iff () Bool)
(assert (= source_andb_true_iff target_andb_true_iff))

; BOF_001_test_buffer_valid: translation preserves property (matches Coq: Theorem)
(declare-fun source_BOF_001_test_buffer_valid () Bool)
(declare-fun target_BOF_001_test_buffer_valid () Bool)
(assert (= source_BOF_001_test_buffer_valid target_BOF_001_test_buffer_valid))

; BOF_002_can_write_bounds: translation preserves property (matches Coq: Theorem)
(declare-fun source_BOF_002_can_write_bounds () Bool)
(declare-fun target_BOF_002_can_write_bounds () Bool)
(assert (= source_BOF_002_can_write_bounds target_BOF_002_can_write_bounds))

; BOF_003_cannot_write_beyond: translation preserves property (matches Coq: Theorem)
(declare-fun source_BOF_003_cannot_write_beyond () Bool)
(declare-fun target_BOF_003_cannot_write_beyond () Bool)
(assert (= source_BOF_003_cannot_write_beyond target_BOF_003_cannot_write_beyond))

; BOF_004_can_read_used: translation preserves property (matches Coq: Theorem)
(declare-fun source_BOF_004_can_read_used () Bool)
(declare-fun target_BOF_004_can_read_used () Bool)
(assert (= source_BOF_004_can_read_used target_BOF_004_can_read_used))

; BOF_005_cannot_read_beyond: translation preserves property (matches Coq: Theorem)
(declare-fun source_BOF_005_cannot_read_beyond () Bool)
(declare-fun target_BOF_005_cannot_read_beyond () Bool)
(assert (= source_BOF_005_cannot_read_beyond target_BOF_005_cannot_read_beyond))

; BOF_006_riina_protected: translation preserves property (matches Coq: Theorem)
(declare-fun source_BOF_006_riina_protected () Bool)
(declare-fun target_BOF_006_riina_protected () Bool)
(assert (= source_BOF_006_riina_protected target_BOF_006_riina_protected))

; BOF_007_bounds_check_write: translation preserves property (matches Coq: Theorem)
(declare-fun source_BOF_007_bounds_check_write () Bool)
(declare-fun target_BOF_007_bounds_check_write () Bool)
(assert (= source_BOF_007_bounds_check_write target_BOF_007_bounds_check_write))

; BOF_008_bounds_check_read: translation preserves property (matches Coq: Theorem)
(declare-fun source_BOF_008_bounds_check_read () Bool)
(declare-fun target_BOF_008_bounds_check_read () Bool)
(assert (= source_BOF_008_bounds_check_read target_BOF_008_bounds_check_read))

; BOF_009_integer_overflow: translation preserves property (matches Coq: Theorem)
(declare-fun source_BOF_009_integer_overflow () Bool)
(declare-fun target_BOF_009_integer_overflow () Bool)
(assert (= source_BOF_009_integer_overflow target_BOF_009_integer_overflow))

; BOF_010_stack_canaries: translation preserves property (matches Coq: Theorem)
(declare-fun source_BOF_010_stack_canaries () Bool)
(declare-fun target_BOF_010_stack_canaries () Bool)
(assert (= source_BOF_010_stack_canaries target_BOF_010_stack_canaries))

; BOF_011_valid_implies_bounds: translation preserves property (matches Coq: Theorem)
(declare-fun source_BOF_011_valid_implies_bounds () Bool)
(declare-fun target_BOF_011_valid_implies_bounds () Bool)
(assert (= source_BOF_011_valid_implies_bounds target_BOF_011_valid_implies_bounds))

; BOF_012_riina_bounds_write: translation preserves property (matches Coq: Theorem)
(declare-fun source_BOF_012_riina_bounds_write () Bool)
(declare-fun target_BOF_012_riina_bounds_write () Bool)
(assert (= source_BOF_012_riina_bounds_write target_BOF_012_riina_bounds_write))

; BOF_013_riina_canaries: translation preserves property (matches Coq: Theorem)
(declare-fun source_BOF_013_riina_canaries () Bool)
(declare-fun target_BOF_013_riina_canaries () Bool)
(assert (= source_BOF_013_riina_canaries target_BOF_013_riina_canaries))

; BOF_014_zero_write_safe: translation preserves property (matches Coq: Theorem)
(declare-fun source_BOF_014_zero_write_safe () Bool)
(declare-fun target_BOF_014_zero_write_safe () Bool)
(assert (= source_BOF_014_zero_write_safe target_BOF_014_zero_write_safe))

; BOF_015_complete_prevention: translation preserves property (matches Coq: Theorem)
(declare-fun source_BOF_015_complete_prevention () Bool)
(declare-fun target_BOF_015_complete_prevention () Bool)
(assert (= source_BOF_015_complete_prevention target_BOF_015_complete_prevention))

; BOF_016_write_bounded: translation preserves property (matches Coq: Theorem)
(declare-fun source_BOF_016_write_bounded () Bool)
(declare-fun target_BOF_016_write_bounded () Bool)
(assert (= source_BOF_016_write_bounded target_BOF_016_write_bounded))

; BOF_017_read_start_within: translation preserves property (matches Coq: Theorem)
(declare-fun source_BOF_017_read_start_within () Bool)
(declare-fun target_BOF_017_read_start_within () Bool)
(assert (= source_BOF_017_read_start_within target_BOF_017_read_start_within))

; BOF_018_zero_read_safe: translation preserves property (matches Coq: Theorem)
(declare-fun source_BOF_018_zero_read_safe () Bool)
(declare-fun target_BOF_018_zero_read_safe () Bool)
(assert (= source_BOF_018_zero_read_safe target_BOF_018_zero_read_safe))

; BOF_019_full_buffer_no_write: translation preserves property (matches Coq: Theorem)
(declare-fun source_BOF_019_full_buffer_no_write () Bool)
(declare-fun target_BOF_019_full_buffer_no_write () Bool)
(assert (= source_BOF_019_full_buffer_no_write target_BOF_019_full_buffer_no_write))

; BOF_020_null_terminator_check: translation preserves property (matches Coq: Theorem)
(declare-fun source_BOF_020_null_terminator_check () Bool)
(declare-fun target_BOF_020_null_terminator_check () Bool)
(assert (= source_BOF_020_null_terminator_check target_BOF_020_null_terminator_check))

; BOF_021_valid_after_write: translation preserves property (matches Coq: Theorem)
(declare-fun source_BOF_021_valid_after_write () Bool)
(declare-fun target_BOF_021_valid_after_write () Bool)
(assert (= source_BOF_021_valid_after_write target_BOF_021_valid_after_write))

; Verify all translation validations are satisfiable
(check-sat)
(exit)
